K-Points
 0
Monkhorst Pack
 8  8  1
 0  0  0
