PbS                                     
   5.99500000000000     
     0.5000000000000000   -0.5000000000000000    0.0000000000000000
     0.5000000000000000    0.5000000000000000    0.0000000000000000
     0.0000000000000000    0.0000000000000000    3.6700000000000004
   Pb   S 
    5    5
Direct
  0.0000000000000000  0.0000000000000000  0.0074897201140871
  0.5000000000000000  0.5000000000000000  0.1362397820163466
  0.0000000000000000  0.0000000000000000  0.2724795640327002
  0.5000000000000000  0.5000000000000000  0.4087193460490468
  0.0000000000000000  0.0000000000000000  0.5374694079513063
  0.5000000000000000  0.5000000000000000  0.0067852894638776
  0.0000000000000000  0.0000000000000000  0.1362397820163466
  0.5000000000000000  0.5000000000000000  0.2724795640327002
  0.0000000000000000  0.0000000000000000  0.4087193460490468
  0.5000000000000000  0.5000000000000000  0.5381738386015158
