SYSTEM = CO
ENCUT = 800
PREC = Accurate
ISMEAR = 0
SIGMA = 0.01
EDIFF = 1E-6
NPAR = 4

LSOL = .FALSE.
