CO
1.0
10.0  0.0  0.0
0.0  10.0  0.0
0.0  0.0  10.0
C    O
1    1
C
0.0  0.0  0.0
0.0000 0.0000 1.1300
