H2O
1.0
10.0  0.0  0.0
0.0  10.0  0.0
0.0  0.0  10.0
O    H
1     2
C
0.0  0.0  0.0
0.5925  -0.7618  0.0
0.5925  0.7618  0.0
